-436.0 6.0 4.0 3.0 8.0 7.0 2.0 4.0 0.0 2.0 9.0 1.0 3.0 8.0 8.0 0.0 6.0 3.0 8.0 1.0 8.0 1.0 3.0 3.0 1.0 7.0 0.0 7.0 9.0 7.0 3.0 1.0 4.0 4.0 2.0 7.0 4.0 4.0 3.0 2.0 9.0 8.0 6.0 1.0 8.0 10.0 6.0 4.0 9.0 6.0 5.0 10.0 1.0 10.0 2.0 7.0 5.0 6.0 2.0 9.0 10.0 8.0 7.0 3.0 10.0 9.0 3.0 10.0 0.0 6.0 1.0 6.0 0.0 4.0 1.0 0.0 4.0 9.0 5.0 3.0 5.0 5.0 6.0 0.0 10.0 9.0 5.0 1.0 9.0 
6.0 -491.0 6.0 7.0 8.0 3.0 10.0 5.0 9.0 4.0 5.0 3.0 4.0 2.0 6.0 7.0 10.0 5.0 4.0 6.0 4.0 8.0 4.0 10.0 3.0 3.0 6.0 7.0 10.0 10.0 7.0 4.0 4.0 10.0 9.0 10.0 7.0 7.0 7.0 5.0 4.0 9.0 4.0 7.0 6.0 10.0 10.0 5.0 5.0 8.0 8.0 8.0 6.0 1.0 6.0 4.0 5.0 5.0 7.0 10.0 7.0 7.0 6.0 8.0 3.0 5.0 5.0 10.0 5.0 9.0 2.0 1.0 10.0 3.0 8.0 5.0 9.0 9.0 6.0 0.0 0.0 0.0 0.0 0.0 0.0 0.0 0.0 0.0 0.0 
4.0 6.0 -429.0 7.0 1.0 3.0 3.0 3.0 2.0 8.0 9.0 5.0 1.0 5.0 2.0 2.0 1.0 5.0 1.0 9.0 7.0 5.0 8.0 5.0 1.0 1.0 4.0 5.0 9.0 4.0 9.0 8.0 6.0 2.0 3.0 3.0 4.0 9.0 0.0 7.0 0.0 9.0 2.0 8.0 9.0 9.0 10.0 6.0 5.0 7.0 1.0 0.0 4.0 2.0 9.0 1.0 8.0 10.0 0.0 3.0 7.0 5.0 1.0 0.0 3.0 8.0 2.0 7.0 8.0 4.0 10.0 8.0 8.0 2.0 3.0 7.0 3.0 4.0 9.0 4.0 5.0 8.0 6.0 3.0 4.0 4.0 7.0 6.0 3.0 
3.0 7.0 7.0 -485.0 8.0 6.0 2.0 6.0 0.0 8.0 9.0 3.0 7.0 2.0 8.0 5.0 1.0 1.0 3.0 10.0 5.0 5.0 7.0 10.0 0.0 3.0 0.0 8.0 2.0 6.0 4.0 4.0 8.0 5.0 8.0 6.0 3.0 10.0 7.0 9.0 4.0 9.0 7.0 2.0 3.0 5.0 9.0 2.0 4.0 9.0 9.0 7.0 3.0 1.0 9.0 3.0 10.0 2.0 5.0 10.0 6.0 10.0 6.0 2.0 8.0 4.0 5.0 1.0 8.0 8.0 8.0 4.0 6.0 8.0 10.0 4.0 2.0 8.0 2.0 0.0 10.0 4.0 9.0 7.0 4.0 6.0 9.0 5.0 2.0 
8.0 8.0 1.0 8.0 -455.0 10.0 7.0 7.0 6.0 2.0 10.0 10.0 6.0 7.0 2.0 9.0 2.0 9.0 10.0 8.0 6.0 4.0 7.0 4.0 1.0 1.0 1.0 1.0 2.0 5.0 8.0 1.0 0.0 7.0 1.0 4.0 2.0 7.0 9.0 9.0 4.0 0.0 4.0 0.0 6.0 2.0 10.0 3.0 3.0 4.0 1.0 2.0 4.0 8.0 7.0 6.0 6.0 2.0 6.0 2.0 4.0 0.0 7.0 1.0 9.0 9.0 10.0 7.0 1.0 8.0 3.0 5.0 3.0 8.0 8.0 6.0 6.0 4.0 0.0 7.0 9.0 9.0 2.0 9.0 4.0 4.0 10.0 6.0 6.0 
7.0 3.0 3.0 6.0 10.0 -482.0 5.0 3.0 8.0 5.0 10.0 9.0 4.0 5.0 9.0 7.0 6.0 10.0 1.0 6.0 9.0 8.0 6.0 4.0 5.0 6.0 8.0 1.0 2.0 4.0 0.0 10.0 3.0 3.0 4.0 10.0 7.0 4.0 7.0 0.0 8.0 2.0 8.0 9.0 6.0 8.0 10.0 9.0 1.0 4.0 6.0 10.0 3.0 10.0 0.0 10.0 8.0 6.0 4.0 7.0 9.0 8.0 2.0 2.0 3.0 10.0 5.0 9.0 7.0 7.0 3.0 7.0 7.0 4.0 7.0 1.0 10.0 5.0 3.0 0.0 2.0 7.0 8.0 0.0 1.0 3.0 3.0 0.0 2.0 
2.0 10.0 3.0 2.0 7.0 5.0 -399.0 0.0 1.0 0.0 5.0 1.0 5.0 5.0 4.0 3.0 10.0 7.0 10.0 3.0 3.0 10.0 0.0 0.0 3.0 2.0 4.0 7.0 5.0 10.0 3.0 8.0 3.0 10.0 2.0 6.0 0.0 5.0 8.0 10.0 2.0 10.0 3.0 6.0 1.0 2.0 6.0 3.0 6.0 0.0 4.0 1.0 8.0 8.0 2.0 2.0 9.0 4.0 2.0 5.0 1.0 7.0 4.0 8.0 8.0 3.0 6.0 9.0 5.0 4.0 2.0 2.0 5.0 3.0 1.0 7.0 2.0 10.0 0.0 7.0 4.0 1.0 3.0 0.0 10.0 9.0 8.0 4.0 0.0 
4.0 5.0 3.0 6.0 7.0 3.0 0.0 -498.0 5.0 10.0 2.0 2.0 5.0 5.0 2.0 9.0 1.0 5.0 8.0 9.0 7.0 2.0 8.0 8.0 0.0 5.0 10.0 5.0 7.0 2.0 8.0 0.0 10.0 9.0 9.0 10.0 7.0 7.0 1.0 4.0 2.0 3.0 1.0 6.0 2.0 7.0 7.0 6.0 2.0 10.0 1.0 6.0 8.0 0.0 10.0 10.0 7.0 9.0 3.0 7.0 10.0 10.0 8.0 7.0 8.0 7.0 10.0 7.0 3.0 4.0 8.0 9.0 9.0 2.0 10.0 4.0 8.0 0.0 3.0 2.0 10.0 1.0 9.0 10.0 2.0 7.0 4.0 5.0 4.0 
0.0 9.0 2.0 0.0 6.0 8.0 1.0 5.0 -423.0 9.0 7.0 8.0 7.0 1.0 1.0 4.0 9.0 7.0 7.0 7.0 1.0 7.0 2.0 2.0 9.0 1.0 8.0 9.0 9.0 6.0 5.0 9.0 3.0 1.0 0.0 4.0 3.0 2.0 5.0 5.0 1.0 1.0 2.0 2.0 7.0 4.0 6.0 5.0 6.0 0.0 3.0 5.0 0.0 2.0 1.0 8.0 0.0 0.0 0.0 5.0 8.0 5.0 7.0 9.0 10.0 0.0 2.0 10.0 9.0 2.0 9.0 7.0 7.0 1.0 9.0 3.0 9.0 5.0 8.0 2.0 2.0 3.0 8.0 7.0 10.0 7.0 6.0 10.0 1.0 
2.0 4.0 8.0 8.0 2.0 5.0 0.0 10.0 9.0 -434.0 2.0 9.0 6.0 2.0 1.0 2.0 5.0 6.0 5.0 7.0 6.0 5.0 8.0 7.0 7.0 1.0 4.0 4.0 9.0 1.0 8.0 5.0 7.0 7.0 6.0 2.0 10.0 10.0 4.0 6.0 4.0 3.0 8.0 9.0 5.0 5.0 0.0 0.0 6.0 6.0 1.0 10.0 6.0 3.0 4.0 5.0 3.0 6.0 8.0 5.0 7.0 3.0 9.0 8.0 4.0 9.0 2.0 10.0 3.0 0.0 0.0 1.0 7.0 4.0 3.0 3.0 3.0 0.0 3.0 4.0 8.0 6.0 0.0 9.0 1.0 3.0 6.0 9.0 2.0 
9.0 5.0 9.0 9.0 10.0 10.0 5.0 2.0 7.0 2.0 -480.0 1.0 10.0 10.0 9.0 2.0 9.0 4.0 2.0 9.0 10.0 10.0 8.0 6.0 8.0 0.0 10.0 10.0 0.0 3.0 7.0 6.0 1.0 0.0 2.0 4.0 10.0 4.0 6.0 10.0 1.0 1.0 4.0 6.0 8.0 9.0 1.0 5.0 5.0 7.0 1.0 0.0 5.0 1.0 9.0 3.0 5.0 0.0 2.0 9.0 4.0 6.0 2.0 6.0 8.0 9.0 10.0 1.0 7.0 0.0 3.0 3.0 5.0 8.0 9.0 4.0 6.0 3.0 5.0 7.0 0.0 10.0 3.0 9.0 4.0 5.0 10.0 3.0 9.0 
1.0 3.0 5.0 3.0 10.0 9.0 1.0 2.0 8.0 9.0 1.0 -461.0 6.0 1.0 6.0 4.0 1.0 1.0 4.0 9.0 10.0 8.0 8.0 6.0 6.0 4.0 7.0 0.0 5.0 9.0 5.0 0.0 1.0 6.0 7.0 6.0 6.0 6.0 1.0 6.0 10.0 3.0 0.0 7.0 5.0 9.0 7.0 0.0 10.0 0.0 7.0 0.0 0.0 5.0 8.0 6.0 3.0 7.0 8.0 2.0 6.0 9.0 10.0 2.0 9.0 7.0 6.0 4.0 5.0 8.0 7.0 5.0 5.0 8.0 2.0 8.0 9.0 4.0 6.0 9.0 2.0 9.0 0.0 1.0 3.0 9.0 6.0 4.0 10.0 
3.0 4.0 1.0 7.0 6.0 4.0 5.0 5.0 7.0 6.0 10.0 6.0 -417.0 8.0 4.0 9.0 2.0 1.0 1.0 4.0 4.0 8.0 7.0 7.0 6.0 4.0 8.0 9.0 6.0 0.0 1.0 5.0 4.0 2.0 2.0 3.0 10.0 3.0 8.0 1.0 4.0 8.0 9.0 4.0 5.0 2.0 8.0 8.0 7.0 2.0 2.0 0.0 2.0 1.0 1.0 9.0 7.0 4.0 2.0 1.0 0.0 6.0 6.0 1.0 4.0 10.0 4.0 4.0 9.0 2.0 3.0 1.0 3.0 9.0 1.0 5.0 7.0 3.0 9.0 8.0 10.0 2.0 4.0 4.0 7.0 2.0 7.0 5.0 4.0 
8.0 2.0 5.0 2.0 7.0 5.0 5.0 5.0 1.0 2.0 10.0 1.0 8.0 -404.0 6.0 10.0 2.0 10.0 10.0 2.0 8.0 0.0 4.0 7.0 0.0 9.0 0.0 6.0 5.0 7.0 2.0 2.0 9.0 0.0 6.0 4.0 7.0 1.0 10.0 6.0 1.0 6.0 2.0 5.0 2.0 9.0 4.0 4.0 10.0 0.0 10.0 7.0 3.0 4.0 2.0 3.0 1.0 1.0 2.0 3.0 2.0 8.0 0.0 6.0 9.0 9.0 6.0 2.0 7.0 8.0 4.0 5.0 1.0 0.0 3.0 0.0 2.0 0.0 7.0 5.0 7.0 0.0 2.0 8.0 10.0 8.0 0.0 6.0 6.0 
8.0 6.0 2.0 8.0 2.0 9.0 4.0 2.0 1.0 1.0 9.0 6.0 4.0 6.0 -450.0 5.0 4.0 7.0 9.0 7.0 5.0 0.0 6.0 0.0 1.0 2.0 7.0 8.0 6.0 7.0 10.0 7.0 9.0 6.0 10.0 8.0 4.0 1.0 4.0 10.0 10.0 9.0 4.0 6.0 10.0 2.0 5.0 8.0 9.0 0.0 7.0 3.0 4.0 9.0 6.0 1.0 7.0 7.0 6.0 5.0 0.0 2.0 6.0 7.0 7.0 9.0 7.0 3.0 4.0 6.0 2.0 9.0 0.0 8.0 8.0 6.0 7.0 4.0 4.0 4.0 0.0 6.0 1.0 0.0 4.0 3.0 0.0 1.0 3.0 
0.0 7.0 2.0 5.0 9.0 7.0 3.0 9.0 4.0 2.0 2.0 4.0 9.0 10.0 5.0 -438.0 4.0 0.0 5.0 2.0 8.0 7.0 8.0 8.0 0.0 4.0 3.0 5.0 6.0 3.0 9.0 7.0 1.0 10.0 2.0 6.0 4.0 0.0 7.0 2.0 9.0 9.0 3.0 9.0 0.0 5.0 9.0 5.0 5.0 3.0 1.0 0.0 3.0 9.0 1.0 7.0 6.0 0.0 7.0 7.0 9.0 3.0 0.0 7.0 10.0 10.0 7.0 8.0 8.0 10.0 10.0 3.0 8.0 10.0 0.0 4.0 2.0 3.0 0.0 6.0 4.0 3.0 10.0 2.0 0.0 0.0 7.0 4.0 3.0 
6.0 10.0 1.0 1.0 2.0 6.0 10.0 1.0 9.0 5.0 9.0 1.0 2.0 2.0 4.0 4.0 -429.0 9.0 0.0 0.0 7.0 4.0 6.0 4.0 5.0 10.0 0.0 1.0 1.0 10.0 0.0 10.0 8.0 10.0 6.0 10.0 9.0 10.0 5.0 1.0 10.0 5.0 9.0 5.0 4.0 3.0 6.0 0.0 2.0 6.0 7.0 10.0 10.0 1.0 3.0 10.0 4.0 3.0 3.0 4.0 8.0 1.0 7.0 0.0 2.0 5.0 5.0 1.0 3.0 4.0 9.0 5.0 7.0 5.0 1.0 3.0 8.0 0.0 6.0 3.0 8.0 1.0 3.0 8.0 8.0 8.0 0.0 1.0 5.0 
3.0 5.0 5.0 1.0 9.0 10.0 7.0 5.0 7.0 6.0 4.0 1.0 1.0 10.0 7.0 0.0 9.0 -421.0 1.0 3.0 4.0 7.0 8.0 3.0 4.0 3.0 10.0 5.0 6.0 5.0 0.0 4.0 5.0 6.0 9.0 7.0 1.0 6.0 7.0 6.0 7.0 4.0 0.0 2.0 1.0 10.0 7.0 5.0 8.0 2.0 0.0 2.0 9.0 6.0 4.0 10.0 8.0 7.0 2.0 2.0 9.0 0.0 1.0 2.0 7.0 6.0 6.0 1.0 6.0 3.0 0.0 2.0 10.0 2.0 1.0 3.0 2.0 4.0 6.0 10.0 1.0 2.0 4.0 6.0 5.0 9.0 3.0 10.0 4.0 
8.0 4.0 1.0 3.0 10.0 1.0 10.0 8.0 7.0 5.0 2.0 4.0 1.0 10.0 9.0 5.0 0.0 1.0 -489.0 9.0 6.0 0.0 6.0 7.0 7.0 10.0 2.0 6.0 2.0 5.0 6.0 10.0 10.0 9.0 10.0 1.0 10.0 5.0 5.0 8.0 2.0 1.0 4.0 9.0 4.0 7.0 4.0 8.0 7.0 5.0 8.0 9.0 5.0 5.0 1.0 9.0 10.0 2.0 2.0 3.0 9.0 10.0 6.0 9.0 4.0 7.0 5.0 4.0 7.0 3.0 5.0 2.0 5.0 5.0 5.0 4.0 10.0 6.0 6.0 6.0 5.0 7.0 6.0 0.0 4.0 9.0 7.0 0.0 5.0 
1.0 6.0 9.0 10.0 8.0 6.0 3.0 9.0 7.0 7.0 9.0 9.0 4.0 2.0 7.0 2.0 0.0 3.0 9.0 -464.0 5.0 3.0 0.0 3.0 1.0 6.0 0.0 2.0 10.0 2.0 4.0 2.0 6.0 6.0 10.0 10.0 3.0 10.0 8.0 6.0 2.0 4.0 8.0 7.0 10.0 1.0 2.0 9.0 8.0 10.0 8.0 4.0 8.0 9.0 2.0 3.0 9.0 1.0 2.0 0.0 2.0 3.0 8.0 6.0 2.0 0.0 2.0 1.0 6.0 7.0 5.0 8.0 8.0 10.0 2.0 5.0 8.0 9.0 2.0 10.0 3.0 2.0 10.0 8.0 1.0 2.0 8.0 5.0 6.0 
8.0 4.0 7.0 5.0 6.0 9.0 3.0 7.0 1.0 6.0 10.0 10.0 4.0 8.0 5.0 8.0 7.0 4.0 6.0 5.0 -480.0 1.0 0.0 1.0 5.0 5.0 9.0 6.0 4.0 3.0 9.0 2.0 10.0 8.0 2.0 0.0 7.0 7.0 0.0 8.0 4.0 0.0 3.0 8.0 6.0 6.0 5.0 7.0 4.0 5.0 4.0 6.0 7.0 7.0 0.0 9.0 1.0 10.0 4.0 5.0 9.0 6.0 9.0 9.0 0.0 3.0 9.0 8.0 4.0 10.0 0.0 1.0 1.0 9.0 9.0 5.0 6.0 5.0 5.0 9.0 10.0 0.0 2.0 9.0 4.0 8.0 10.0 9.0 0.0 
1.0 8.0 5.0 5.0 4.0 8.0 10.0 2.0 7.0 5.0 10.0 8.0 8.0 0.0 0.0 7.0 4.0 7.0 0.0 3.0 1.0 -428.0 7.0 6.0 2.0 9.0 5.0 4.0 6.0 5.0 3.0 2.0 5.0 7.0 3.0 0.0 3.0 5.0 3.0 4.0 6.0 7.0 2.0 2.0 4.0 8.0 6.0 8.0 6.0 5.0 4.0 0.0 2.0 3.0 9.0 4.0 5.0 6.0 9.0 9.0 6.0 10.0 9.0 2.0 1.0 7.0 7.0 4.0 1.0 7.0 8.0 8.0 8.0 3.0 6.0 3.0 3.0 5.0 5.0 0.0 4.0 5.0 4.0 1.0 3.0 6.0 3.0 10.0 2.0 
3.0 4.0 8.0 7.0 7.0 6.0 0.0 8.0 2.0 8.0 8.0 8.0 7.0 4.0 6.0 8.0 6.0 8.0 6.0 0.0 0.0 7.0 -438.0 1.0 4.0 8.0 4.0 6.0 9.0 9.0 7.0 10.0 10.0 4.0 9.0 2.0 0.0 8.0 3.0 6.0 10.0 1.0 6.0 3.0 6.0 6.0 3.0 2.0 0.0 1.0 4.0 1.0 4.0 7.0 2.0 8.0 5.0 9.0 7.0 7.0 5.0 4.0 8.0 8.0 3.0 0.0 8.0 8.0 0.0 4.0 1.0 6.0 1.0 6.0 2.0 8.0 2.0 1.0 5.0 8.0 9.0 8.0 2.0 1.0 8.0 0.0 5.0 2.0 2.0 
3.0 10.0 5.0 10.0 4.0 4.0 0.0 8.0 2.0 7.0 6.0 6.0 7.0 7.0 0.0 8.0 4.0 3.0 7.0 3.0 1.0 6.0 1.0 -471.0 3.0 7.0 9.0 0.0 8.0 9.0 10.0 10.0 10.0 9.0 2.0 8.0 7.0 1.0 10.0 9.0 4.0 6.0 2.0 10.0 9.0 2.0 0.0 6.0 5.0 0.0 10.0 4.0 8.0 2.0 9.0 6.0 6.0 10.0 6.0 4.0 3.0 4.0 9.0 1.0 6.0 1.0 10.0 0.0 5.0 4.0 7.0 4.0 7.0 0.0 1.0 3.0 1.0 5.0 8.0 2.0 8.0 9.0 8.0 8.0 4.0 2.0 8.0 9.0 1.0 
1.0 3.0 1.0 0.0 1.0 5.0 3.0 0.0 9.0 7.0 8.0 6.0 6.0 0.0 1.0 0.0 5.0 4.0 7.0 1.0 5.0 2.0 4.0 3.0 -407.0 1.0 1.0 6.0 2.0 8.0 5.0 5.0 3.0 0.0 6.0 5.0 10.0 10.0 4.0 3.0 6.0 8.0 1.0 9.0 3.0 6.0 2.0 6.0 6.0 4.0 2.0 5.0 6.0 7.0 7.0 5.0 5.0 2.0 4.0 0.0 9.0 6.0 5.0 7.0 7.0 2.0 8.0 8.0 2.0 8.0 8.0 9.0 7.0 2.0 9.0 2.0 2.0 3.0 9.0 6.0 2.0 8.0 6.0 0.0 6.0 5.0 4.0 8.0 4.0 
7.0 3.0 1.0 3.0 1.0 6.0 2.0 5.0 1.0 1.0 0.0 4.0 4.0 9.0 2.0 4.0 10.0 3.0 10.0 6.0 5.0 9.0 8.0 7.0 1.0 -448.0 9.0 0.0 6.0 6.0 4.0 4.0 7.0 6.0 7.0 1.0 3.0 2.0 9.0 2.0 5.0 9.0 3.0 6.0 5.0 6.0 4.0 8.0 0.0 1.0 1.0 5.0 4.0 10.0 8.0 8.0 9.0 3.0 6.0 9.0 1.0 10.0 4.0 7.0 4.0 4.0 5.0 8.0 4.0 6.0 6.0 8.0 9.0 10.0 0.0 5.0 8.0 10.0 1.0 3.0 6.0 10.0 10.0 5.0 3.0 9.0 1.0 2.0 1.0 
0.0 6.0 4.0 0.0 1.0 8.0 4.0 10.0 8.0 4.0 10.0 7.0 8.0 0.0 7.0 3.0 0.0 10.0 2.0 0.0 9.0 5.0 4.0 9.0 1.0 9.0 -444.0 3.0 1.0 0.0 9.0 7.0 8.0 9.0 0.0 9.0 3.0 10.0 9.0 7.0 7.0 8.0 2.0 10.0 4.0 2.0 8.0 1.0 0.0 6.0 6.0 10.0 6.0 6.0 0.0 2.0 8.0 8.0 4.0 5.0 6.0 0.0 10.0 3.0 8.0 3.0 7.0 6.0 4.0 8.0 7.0 3.0 7.0 3.0 9.0 0.0 7.0 2.0 4.0 3.0 4.0 1.0 2.0 0.0 7.0 4.0 7.0 7.0 5.0 
7.0 7.0 5.0 8.0 1.0 1.0 7.0 5.0 9.0 4.0 10.0 0.0 9.0 6.0 8.0 5.0 1.0 5.0 6.0 2.0 6.0 4.0 6.0 0.0 6.0 0.0 3.0 -391.0 4.0 0.0 10.0 9.0 9.0 0.0 3.0 7.0 2.0 2.0 10.0 5.0 6.0 9.0 0.0 5.0 0.0 3.0 2.0 4.0 2.0 8.0 0.0 2.0 1.0 8.0 7.0 0.0 10.0 4.0 9.0 5.0 3.0 5.0 4.0 2.0 1.0 0.0 2.0 0.0 8.0 8.0 7.0 4.0 6.0 4.0 10.0 2.0 5.0 4.0 8.0 5.0 0.0 5.0 2.0 4.0 3.0 2.0 4.0 1.0 5.0 
9.0 10.0 9.0 2.0 2.0 2.0 5.0 7.0 9.0 9.0 0.0 5.0 6.0 5.0 6.0 6.0 1.0 6.0 2.0 10.0 4.0 6.0 9.0 8.0 2.0 6.0 1.0 4.0 -461.0 7.0 4.0 5.0 9.0 1.0 1.0 6.0 0.0 2.0 5.0 7.0 8.0 7.0 10.0 2.0 6.0 6.0 10.0 10.0 6.0 2.0 2.0 9.0 8.0 6.0 5.0 4.0 9.0 1.0 10.0 6.0 0.0 9.0 10.0 4.0 4.0 2.0 2.0 7.0 3.0 2.0 8.0 4.0 10.0 6.0 0.0 6.0 2.0 0.0 4.0 7.0 1.0 0.0 5.0 8.0 4.0 10.0 3.0 5.0 10.0 
7.0 10.0 4.0 6.0 5.0 4.0 10.0 2.0 6.0 1.0 3.0 9.0 0.0 7.0 7.0 3.0 10.0 5.0 5.0 2.0 3.0 5.0 9.0 9.0 8.0 6.0 0.0 0.0 7.0 -419.0 10.0 5.0 1.0 5.0 0.0 5.0 3.0 5.0 9.0 8.0 9.0 6.0 1.0 2.0 9.0 1.0 1.0 5.0 4.0 5.0 2.0 5.0 6.0 9.0 8.0 7.0 5.0 3.0 7.0 4.0 1.0 4.0 3.0 2.0 2.0 0.0 0.0 3.0 1.0 9.0 1.0 8.0 2.0 0.0 10.0 1.0 1.0 3.0 10.0 7.0 2.0 8.0 3.0 4.0 10.0 3.0 8.0 4.0 6.0 
3.0 7.0 9.0 4.0 8.0 0.0 3.0 8.0 5.0 8.0 7.0 5.0 1.0 2.0 10.0 9.0 0.0 0.0 6.0 4.0 9.0 3.0 7.0 10.0 5.0 4.0 9.0 10.0 4.0 10.0 -502.0 9.0 7.0 6.0 9.0 0.0 3.0 9.0 7.0 8.0 3.0 1.0 5.0 4.0 8.0 3.0 2.0 10.0 8.0 9.0 4.0 1.0 10.0 8.0 0.0 4.0 1.0 1.0 5.0 10.0 6.0 2.0 4.0 7.0 5.0 1.0 9.0 8.0 6.0 2.0 9.0 5.0 3.0 5.0 10.0 1.0 6.0 3.0 8.0 8.0 0.0 9.0 6.0 10.0 4.0 10.0 10.0 10.0 10.0 
1.0 4.0 8.0 4.0 1.0 10.0 8.0 0.0 9.0 5.0 6.0 0.0 5.0 2.0 7.0 7.0 10.0 4.0 10.0 2.0 2.0 2.0 10.0 10.0 5.0 4.0 7.0 9.0 5.0 5.0 9.0 -473.0 1.0 10.0 1.0 8.0 6.0 10.0 9.0 8.0 6.0 9.0 9.0 6.0 0.0 8.0 9.0 7.0 3.0 8.0 5.0 5.0 0.0 4.0 1.0 10.0 0.0 3.0 2.0 7.0 2.0 6.0 1.0 10.0 2.0 6.0 7.0 7.0 6.0 10.0 3.0 3.0 6.0 5.0 8.0 7.0 10.0 3.0 4.0 9.0 3.0 5.0 0.0 8.0 3.0 7.0 5.0 1.0 0.0 
4.0 4.0 6.0 8.0 0.0 3.0 3.0 10.0 3.0 7.0 1.0 1.0 4.0 9.0 9.0 1.0 8.0 5.0 10.0 6.0 10.0 5.0 10.0 10.0 3.0 7.0 8.0 9.0 9.0 1.0 7.0 1.0 -442.0 1.0 7.0 10.0 1.0 1.0 10.0 3.0 2.0 7.0 2.0 6.0 0.0 1.0 5.0 8.0 9.0 3.0 5.0 2.0 4.0 7.0 1.0 3.0 9.0 6.0 7.0 1.0 6.0 3.0 1.0 6.0 6.0 5.0 8.0 10.0 1.0 10.0 10.0 1.0 8.0 6.0 8.0 0.0 5.0 1.0 5.0 3.0 2.0 10.0 2.0 0.0 5.0 2.0 6.0 0.0 9.0 
4.0 10.0 2.0 5.0 7.0 3.0 10.0 9.0 1.0 7.0 0.0 6.0 2.0 0.0 6.0 10.0 10.0 6.0 9.0 6.0 8.0 7.0 4.0 9.0 0.0 6.0 9.0 0.0 1.0 5.0 6.0 10.0 1.0 -444.0 5.0 7.0 3.0 6.0 3.0 9.0 8.0 1.0 2.0 4.0 9.0 8.0 9.0 4.0 9.0 3.0 2.0 2.0 1.0 4.0 6.0 0.0 8.0 5.0 9.0 4.0 3.0 10.0 6.0 5.0 9.0 3.0 10.0 4.0 2.0 7.0 5.0 7.0 7.0 6.0 1.0 2.0 4.0 2.0 4.0 4.0 5.0 0.0 1.0 3.0 4.0 5.0 2.0 5.0 8.0 
2.0 9.0 3.0 8.0 1.0 4.0 2.0 9.0 0.0 6.0 2.0 7.0 2.0 6.0 10.0 2.0 6.0 9.0 10.0 10.0 2.0 3.0 9.0 2.0 6.0 7.0 0.0 3.0 1.0 0.0 9.0 1.0 7.0 5.0 -459.0 6.0 3.0 5.0 4.0 7.0 1.0 6.0 4.0 8.0 9.0 10.0 2.0 4.0 10.0 7.0 3.0 9.0 5.0 3.0 3.0 3.0 8.0 6.0 4.0 6.0 0.0 6.0 3.0 0.0 10.0 4.0 8.0 6.0 10.0 9.0 5.0 0.0 5.0 3.0 6.0 0.0 3.0 5.0 6.0 6.0 7.0 7.0 7.0 7.0 9.0 9.0 4.0 10.0 5.0 
7.0 10.0 3.0 6.0 4.0 10.0 6.0 10.0 4.0 2.0 4.0 6.0 3.0 4.0 8.0 6.0 10.0 7.0 1.0 10.0 0.0 0.0 2.0 8.0 5.0 1.0 9.0 7.0 6.0 5.0 0.0 8.0 10.0 7.0 6.0 -486.0 4.0 7.0 7.0 3.0 2.0 0.0 10.0 2.0 8.0 7.0 0.0 1.0 5.0 0.0 2.0 6.0 7.0 7.0 2.0 9.0 1.0 7.0 8.0 10.0 2.0 6.0 3.0 8.0 4.0 7.0 7.0 8.0 0.0 4.0 2.0 9.0 7.0 8.0 10.0 10.0 4.0 2.0 6.0 8.0 8.0 0.0 10.0 9.0 9.0 6.0 4.0 6.0 9.0 
4.0 7.0 4.0 3.0 2.0 7.0 0.0 7.0 3.0 10.0 10.0 6.0 10.0 7.0 4.0 4.0 9.0 1.0 10.0 3.0 7.0 3.0 0.0 7.0 10.0 3.0 3.0 2.0 0.0 3.0 3.0 6.0 1.0 3.0 3.0 4.0 -432.0 10.0 2.0 7.0 9.0 5.0 5.0 5.0 1.0 10.0 6.0 5.0 4.0 7.0 9.0 10.0 1.0 1.0 2.0 4.0 5.0 8.0 2.0 8.0 5.0 7.0 1.0 1.0 4.0 1.0 2.0 9.0 3.0 4.0 8.0 4.0 1.0 6.0 8.0 6.0 7.0 2.0 1.0 3.0 0.0 8.0 5.0 7.0 8.0 7.0 8.0 2.0 9.0 
4.0 7.0 9.0 10.0 7.0 4.0 5.0 7.0 2.0 10.0 4.0 6.0 3.0 1.0 1.0 0.0 10.0 6.0 5.0 10.0 7.0 5.0 8.0 1.0 10.0 2.0 10.0 2.0 2.0 5.0 9.0 10.0 1.0 6.0 5.0 7.0 10.0 -429.0 3.0 2.0 2.0 2.0 3.0 6.0 4.0 3.0 8.0 2.0 4.0 6.0 6.0 7.0 6.0 7.0 1.0 2.0 9.0 1.0 6.0 7.0 9.0 7.0 0.0 0.0 1.0 0.0 9.0 5.0 5.0 3.0 2.0 9.0 2.0 7.0 0.0 2.0 10.0 7.0 1.0 8.0 3.0 8.0 1.0 1.0 4.0 3.0 4.0 7.0 3.0 
3.0 7.0 0.0 7.0 9.0 7.0 8.0 1.0 5.0 4.0 6.0 1.0 8.0 10.0 4.0 7.0 5.0 7.0 5.0 8.0 0.0 3.0 3.0 10.0 4.0 9.0 9.0 10.0 5.0 9.0 7.0 9.0 10.0 3.0 4.0 7.0 2.0 3.0 -473.0 5.0 6.0 3.0 5.0 5.0 7.0 1.0 10.0 2.0 5.0 1.0 1.0 5.0 4.0 3.0 3.0 7.0 0.0 6.0 0.0 0.0 3.0 0.0 7.0 4.0 6.0 4.0 4.0 9.0 6.0 4.0 7.0 10.0 6.0 10.0 5.0 4.0 4.0 8.0 10.0 1.0 6.0 9.0 0.0 6.0 10.0 9.0 6.0 10.0 7.0 
2.0 5.0 7.0 9.0 9.0 0.0 10.0 4.0 5.0 6.0 10.0 6.0 1.0 6.0 10.0 2.0 1.0 6.0 8.0 6.0 8.0 4.0 6.0 9.0 3.0 2.0 7.0 5.0 7.0 8.0 8.0 8.0 3.0 9.0 7.0 3.0 7.0 2.0 5.0 -448.0 6.0 3.0 5.0 4.0 5.0 3.0 5.0 10.0 3.0 7.0 2.0 2.0 7.0 7.0 0.0 8.0 2.0 0.0 0.0 2.0 6.0 4.0 0.0 8.0 7.0 0.0 5.0 5.0 2.0 4.0 5.0 2.0 2.0 5.0 7.0 7.0 8.0 0.0 5.0 8.0 2.0 3.0 6.0 4.0 8.0 8.0 9.0 10.0 3.0 
9.0 4.0 0.0 4.0 4.0 8.0 2.0 2.0 1.0 4.0 1.0 10.0 4.0 1.0 10.0 9.0 10.0 7.0 2.0 2.0 4.0 6.0 10.0 4.0 6.0 5.0 7.0 6.0 8.0 9.0 3.0 6.0 2.0 8.0 1.0 2.0 9.0 2.0 6.0 6.0 -458.0 2.0 3.0 7.0 4.0 4.0 9.0 5.0 4.0 6.0 0.0 1.0 2.0 5.0 10.0 6.0 8.0 10.0 9.0 6.0 10.0 1.0 7.0 4.0 8.0 4.0 5.0 1.0 6.0 5.0 2.0 10.0 6.0 4.0 7.0 1.0 2.0 4.0 1.0 4.0 9.0 9.0 10.0 4.0 0.0 10.0 7.0 6.0 6.0 
8.0 9.0 9.0 9.0 0.0 2.0 10.0 3.0 1.0 3.0 1.0 3.0 8.0 6.0 9.0 9.0 5.0 4.0 1.0 4.0 0.0 7.0 1.0 6.0 8.0 9.0 8.0 9.0 7.0 6.0 1.0 9.0 7.0 1.0 6.0 0.0 5.0 2.0 3.0 3.0 2.0 -428.0 5.0 2.0 3.0 0.0 2.0 10.0 5.0 5.0 0.0 6.0 5.0 0.0 3.0 7.0 8.0 6.0 9.0 3.0 10.0 7.0 8.0 8.0 3.0 10.0 0.0 2.0 0.0 2.0 7.0 9.0 4.0 3.0 3.0 4.0 8.0 4.0 3.0 3.0 2.0 5.0 9.0 5.0 7.0 6.0 9.0 4.0 0.0 
6.0 4.0 2.0 7.0 4.0 8.0 3.0 1.0 2.0 8.0 4.0 0.0 9.0 2.0 4.0 3.0 9.0 0.0 4.0 8.0 3.0 2.0 6.0 2.0 1.0 3.0 2.0 0.0 10.0 1.0 5.0 9.0 2.0 2.0 4.0 10.0 5.0 3.0 5.0 5.0 3.0 5.0 -390.0 3.0 2.0 7.0 5.0 2.0 1.0 5.0 9.0 5.0 1.0 6.0 0.0 4.0 10.0 8.0 4.0 1.0 1.0 4.0 5.0 7.0 9.0 7.0 0.0 10.0 2.0 10.0 2.0 3.0 1.0 3.0 0.0 10.0 4.0 7.0 5.0 2.0 6.0 2.0 7.0 7.0 9.0 10.0 2.0 4.0 2.0 
1.0 7.0 8.0 2.0 0.0 9.0 6.0 6.0 2.0 9.0 6.0 7.0 4.0 5.0 6.0 9.0 5.0 2.0 9.0 7.0 8.0 2.0 3.0 10.0 9.0 6.0 10.0 5.0 2.0 2.0 4.0 6.0 6.0 4.0 8.0 2.0 5.0 6.0 5.0 4.0 7.0 2.0 3.0 -436.0 3.0 6.0 7.0 5.0 4.0 4.0 7.0 3.0 1.0 8.0 1.0 2.0 1.0 8.0 1.0 4.0 8.0 1.0 0.0 5.0 5.0 5.0 6.0 10.0 7.0 9.0 5.0 3.0 7.0 8.0 6.0 2.0 9.0 2.0 8.0 1.0 6.0 8.0 8.0 5.0 4.0 2.0 0.0 0.0 2.0 
8.0 6.0 9.0 3.0 6.0 6.0 1.0 2.0 7.0 5.0 8.0 5.0 5.0 2.0 10.0 0.0 4.0 1.0 4.0 10.0 6.0 4.0 6.0 9.0 3.0 5.0 4.0 0.0 6.0 9.0 8.0 0.0 0.0 9.0 9.0 8.0 1.0 4.0 7.0 5.0 4.0 3.0 2.0 3.0 -468.0 9.0 8.0 9.0 3.0 6.0 6.0 4.0 7.0 6.0 7.0 7.0 4.0 6.0 3.0 4.0 2.0 3.0 2.0 8.0 10.0 3.0 8.0 5.0 2.0 3.0 10.0 9.0 9.0 2.0 0.0 5.0 7.0 4.0 10.0 3.0 4.0 8.0 4.0 9.0 7.0 3.0 4.0 10.0 8.0 
10.0 10.0 9.0 5.0 2.0 8.0 2.0 7.0 4.0 5.0 9.0 9.0 2.0 9.0 2.0 5.0 3.0 10.0 7.0 1.0 6.0 8.0 6.0 2.0 6.0 6.0 2.0 3.0 6.0 1.0 3.0 8.0 1.0 8.0 10.0 7.0 10.0 3.0 1.0 3.0 4.0 0.0 7.0 6.0 9.0 -488.0 2.0 7.0 6.0 6.0 9.0 7.0 8.0 10.0 9.0 9.0 10.0 4.0 8.0 2.0 7.0 8.0 0.0 5.0 7.0 6.0 3.0 1.0 10.0 6.0 10.0 1.0 3.0 8.0 6.0 6.0 5.0 2.0 10.0 0.0 1.0 2.0 10.0 1.0 6.0 6.0 7.0 2.0 7.0 
6.0 10.0 10.0 9.0 10.0 10.0 6.0 7.0 6.0 0.0 1.0 7.0 8.0 4.0 5.0 9.0 6.0 7.0 4.0 2.0 5.0 6.0 3.0 0.0 2.0 4.0 8.0 2.0 10.0 1.0 2.0 9.0 5.0 9.0 2.0 0.0 6.0 8.0 10.0 5.0 9.0 2.0 5.0 7.0 8.0 2.0 -476.0 10.0 9.0 0.0 9.0 1.0 8.0 8.0 10.0 6.0 3.0 5.0 3.0 8.0 8.0 8.0 6.0 1.0 6.0 3.0 4.0 7.0 4.0 4.0 3.0 3.0 9.0 2.0 1.0 6.0 1.0 7.0 5.0 2.0 6.0 0.0 4.0 9.0 10.0 7.0 2.0 1.0 10.0 
4.0 5.0 6.0 2.0 3.0 9.0 3.0 6.0 5.0 0.0 5.0 0.0 8.0 4.0 8.0 5.0 0.0 5.0 8.0 9.0 7.0 8.0 2.0 6.0 6.0 8.0 1.0 4.0 10.0 5.0 10.0 7.0 8.0 4.0 4.0 1.0 5.0 2.0 2.0 10.0 5.0 10.0 2.0 5.0 9.0 7.0 10.0 -471.0 9.0 7.0 0.0 8.0 10.0 8.0 3.0 9.0 0.0 9.0 10.0 5.0 5.0 7.0 3.0 1.0 1.0 7.0 4.0 10.0 4.0 9.0 6.0 8.0 8.0 10.0 5.0 4.0 5.0 4.0 1.0 6.0 6.0 1.0 1.0 5.0 3.0 2.0 5.0 4.0 5.0 
9.0 5.0 5.0 4.0 3.0 1.0 6.0 2.0 6.0 6.0 5.0 10.0 7.0 10.0 9.0 5.0 2.0 8.0 7.0 8.0 4.0 6.0 0.0 5.0 6.0 0.0 0.0 2.0 6.0 4.0 8.0 3.0 9.0 9.0 10.0 5.0 4.0 4.0 5.0 3.0 4.0 5.0 1.0 4.0 3.0 6.0 9.0 9.0 -461.0 2.0 10.0 3.0 8.0 7.0 7.0 5.0 0.0 10.0 9.0 4.0 4.0 1.0 8.0 4.0 9.0 8.0 0.0 1.0 7.0 0.0 7.0 10.0 2.0 2.0 9.0 2.0 4.0 7.0 1.0 7.0 2.0 6.0 9.0 0.0 8.0 0.0 8.0 8.0 10.0 
6.0 8.0 7.0 9.0 4.0 4.0 0.0 10.0 0.0 6.0 7.0 0.0 2.0 0.0 0.0 3.0 6.0 2.0 5.0 10.0 5.0 5.0 1.0 0.0 4.0 1.0 6.0 8.0 2.0 5.0 9.0 8.0 3.0 3.0 7.0 0.0 7.0 6.0 1.0 7.0 6.0 5.0 5.0 4.0 6.0 6.0 0.0 7.0 2.0 -409.0 1.0 2.0 5.0 8.0 8.0 1.0 4.0 10.0 9.0 0.0 2.0 4.0 5.0 2.0 8.0 6.0 7.0 1.0 10.0 5.0 6.0 9.0 5.0 0.0 0.0 1.0 9.0 6.0 9.0 0.0 4.0 8.0 7.0 2.0 9.0 1.0 10.0 3.0 4.0 
5.0 8.0 1.0 9.0 1.0 6.0 4.0 1.0 3.0 1.0 1.0 7.0 2.0 10.0 7.0 1.0 7.0 0.0 8.0 8.0 4.0 4.0 4.0 10.0 2.0 1.0 6.0 0.0 2.0 2.0 4.0 5.0 5.0 2.0 3.0 2.0 9.0 6.0 1.0 2.0 0.0 0.0 9.0 7.0 6.0 9.0 9.0 0.0 10.0 1.0 -427.0 3.0 7.0 7.0 6.0 8.0 3.0 4.0 8.0 10.0 9.0 4.0 6.0 9.0 5.0 9.0 6.0 6.0 9.0 6.0 10.0 4.0 2.0 3.0 3.0 10.0 0.0 8.0 0.0 0.0 0.0 7.0 1.0 3.0 5.0 9.0 9.0 5.0 8.0 
10.0 8.0 0.0 7.0 2.0 10.0 1.0 6.0 5.0 10.0 0.0 0.0 0.0 7.0 3.0 0.0 10.0 2.0 9.0 4.0 6.0 0.0 1.0 4.0 5.0 5.0 10.0 2.0 9.0 5.0 1.0 5.0 2.0 2.0 9.0 6.0 10.0 7.0 5.0 2.0 1.0 6.0 5.0 3.0 4.0 7.0 1.0 8.0 3.0 2.0 3.0 -426.0 6.0 10.0 8.0 3.0 6.0 3.0 9.0 3.0 8.0 1.0 0.0 5.0 8.0 7.0 9.0 5.0 8.0 0.0 8.0 0.0 2.0 3.0 3.0 7.0 9.0 4.0 1.0 10.0 1.0 7.0 2.0 7.0 7.0 4.0 7.0 3.0 9.0 
1.0 6.0 4.0 3.0 4.0 3.0 8.0 8.0 0.0 6.0 5.0 0.0 2.0 3.0 4.0 3.0 10.0 9.0 5.0 8.0 7.0 2.0 4.0 8.0 6.0 4.0 6.0 1.0 8.0 6.0 10.0 0.0 4.0 1.0 5.0 7.0 1.0 6.0 4.0 7.0 2.0 5.0 1.0 1.0 7.0 8.0 8.0 10.0 8.0 5.0 7.0 6.0 -437.0 1.0 10.0 1.0 8.0 5.0 0.0 1.0 2.0 4.0 4.0 7.0 8.0 3.0 3.0 10.0 5.0 10.0 4.0 3.0 0.0 1.0 1.0 8.0 0.0 1.0 9.0 1.0 5.0 8.0 6.0 9.0 10.0 8.0 9.0 8.0 7.0 
10.0 1.0 2.0 1.0 8.0 10.0 8.0 0.0 2.0 3.0 1.0 5.0 1.0 4.0 9.0 9.0 1.0 6.0 5.0 9.0 7.0 3.0 7.0 2.0 7.0 10.0 6.0 8.0 6.0 9.0 8.0 4.0 7.0 4.0 3.0 7.0 1.0 7.0 3.0 7.0 5.0 0.0 6.0 8.0 6.0 10.0 8.0 8.0 7.0 8.0 7.0 10.0 1.0 -440.0 10.0 10.0 10.0 5.0 6.0 1.0 7.0 0.0 0.0 2.0 3.0 4.0 1.0 4.0 0.0 9.0 4.0 0.0 4.0 5.0 2.0 0.0 2.0 8.0 9.0 7.0 6.0 0.0 1.0 9.0 0.0 9.0 1.0 1.0 5.0 
2.0 6.0 9.0 9.0 7.0 0.0 2.0 10.0 1.0 4.0 9.0 8.0 1.0 2.0 6.0 1.0 3.0 4.0 1.0 2.0 0.0 9.0 2.0 9.0 7.0 8.0 0.0 7.0 5.0 8.0 0.0 1.0 1.0 6.0 3.0 2.0 2.0 1.0 3.0 0.0 10.0 3.0 0.0 1.0 7.0 9.0 10.0 3.0 7.0 8.0 6.0 8.0 10.0 10.0 -403.0 1.0 3.0 10.0 0.0 5.0 2.0 2.0 3.0 4.0 6.0 8.0 2.0 9.0 7.0 5.0 0.0 2.0 0.0 2.0 10.0 0.0 3.0 5.0 4.0 0.0 4.0 9.0 9.0 3.0 5.0 10.0 3.0 10.0 4.0 
7.0 4.0 1.0 3.0 6.0 10.0 2.0 10.0 8.0 5.0 3.0 6.0 9.0 3.0 1.0 7.0 10.0 10.0 9.0 3.0 9.0 4.0 8.0 6.0 5.0 8.0 2.0 0.0 4.0 7.0 4.0 10.0 3.0 0.0 3.0 9.0 4.0 2.0 7.0 8.0 6.0 7.0 4.0 2.0 7.0 9.0 6.0 9.0 5.0 1.0 8.0 3.0 1.0 10.0 1.0 -449.0 3.0 2.0 4.0 1.0 0.0 1.0 10.0 6.0 1.0 7.0 4.0 3.0 6.0 7.0 6.0 10.0 3.0 9.0 1.0 0.0 4.0 5.0 1.0 6.0 1.0 3.0 9.0 8.0 7.0 6.0 0.0 8.0 8.0 
5.0 5.0 8.0 10.0 6.0 8.0 9.0 7.0 0.0 3.0 5.0 3.0 7.0 1.0 7.0 6.0 4.0 8.0 10.0 9.0 1.0 5.0 5.0 6.0 5.0 9.0 8.0 10.0 9.0 5.0 1.0 0.0 9.0 8.0 8.0 1.0 5.0 9.0 0.0 2.0 8.0 8.0 10.0 1.0 4.0 10.0 3.0 0.0 0.0 4.0 3.0 6.0 8.0 10.0 3.0 3.0 -460.0 5.0 4.0 7.0 0.0 1.0 9.0 0.0 4.0 8.0 0.0 5.0 7.0 3.0 5.0 10.0 6.0 5.0 7.0 8.0 2.0 6.0 1.0 4.0 2.0 3.0 10.0 1.0 10.0 1.0 3.0 8.0 7.0 
6.0 5.0 10.0 2.0 2.0 6.0 4.0 9.0 0.0 6.0 0.0 7.0 4.0 1.0 7.0 0.0 3.0 7.0 2.0 1.0 10.0 6.0 9.0 10.0 2.0 3.0 8.0 4.0 1.0 3.0 1.0 3.0 6.0 5.0 6.0 7.0 8.0 1.0 6.0 0.0 10.0 6.0 8.0 8.0 6.0 4.0 5.0 9.0 10.0 10.0 4.0 3.0 5.0 5.0 10.0 2.0 5.0 -457.0 9.0 4.0 0.0 10.0 6.0 6.0 6.0 9.0 1.0 0.0 7.0 8.0 4.0 10.0 4.0 9.0 7.0 2.0 8.0 6.0 2.0 6.0 4.0 10.0 0.0 8.0 0.0 3.0 9.0 2.0 6.0 
2.0 7.0 0.0 5.0 6.0 4.0 2.0 3.0 0.0 8.0 2.0 8.0 2.0 2.0 6.0 7.0 3.0 2.0 2.0 2.0 4.0 9.0 7.0 6.0 4.0 6.0 4.0 9.0 10.0 7.0 5.0 2.0 7.0 9.0 4.0 8.0 2.0 6.0 0.0 0.0 9.0 9.0 4.0 1.0 3.0 8.0 3.0 10.0 9.0 9.0 8.0 9.0 0.0 6.0 0.0 4.0 4.0 9.0 -438.0 9.0 10.0 7.0 5.0 10.0 2.0 4.0 6.0 3.0 2.0 4.0 0.0 0.0 6.0 0.0 5.0 1.0 3.0 9.0 2.0 1.0 3.0 10.0 5.0 5.0 10.0 10.0 10.0 7.0 2.0 
9.0 10.0 3.0 10.0 2.0 7.0 5.0 7.0 5.0 5.0 9.0 2.0 1.0 3.0 5.0 7.0 4.0 2.0 3.0 0.0 5.0 9.0 7.0 4.0 0.0 9.0 5.0 5.0 6.0 4.0 10.0 7.0 1.0 4.0 6.0 10.0 8.0 7.0 0.0 2.0 6.0 3.0 1.0 4.0 4.0 2.0 8.0 5.0 4.0 0.0 10.0 3.0 1.0 1.0 5.0 1.0 7.0 4.0 9.0 -435.0 0.0 9.0 0.0 10.0 10.0 9.0 4.0 1.0 0.0 1.0 7.0 9.0 1.0 0.0 6.0 1.0 3.0 6.0 6.0 1.0 5.0 9.0 6.0 10.0 9.0 7.0 5.0 7.0 7.0 
10.0 7.0 7.0 6.0 4.0 9.0 1.0 10.0 8.0 7.0 4.0 6.0 0.0 2.0 0.0 9.0 8.0 9.0 9.0 2.0 9.0 6.0 5.0 3.0 9.0 1.0 6.0 3.0 0.0 1.0 6.0 2.0 6.0 3.0 0.0 2.0 5.0 9.0 3.0 6.0 10.0 10.0 1.0 8.0 2.0 7.0 8.0 5.0 4.0 2.0 9.0 8.0 2.0 7.0 2.0 0.0 0.0 0.0 10.0 0.0 -479.0 3.0 10.0 5.0 10.0 8.0 7.0 9.0 9.0 7.0 4.0 9.0 5.0 5.0 5.0 7.0 6.0 3.0 1.0 8.0 10.0 5.0 7.0 5.0 5.0 10.0 6.0 8.0 4.0 
8.0 7.0 5.0 10.0 0.0 8.0 7.0 10.0 5.0 3.0 6.0 9.0 6.0 8.0 2.0 3.0 1.0 0.0 10.0 3.0 6.0 10.0 4.0 4.0 6.0 10.0 0.0 5.0 9.0 4.0 2.0 6.0 3.0 10.0 6.0 6.0 7.0 7.0 0.0 4.0 1.0 7.0 4.0 1.0 3.0 8.0 8.0 7.0 1.0 4.0 4.0 1.0 4.0 0.0 2.0 1.0 1.0 10.0 7.0 9.0 3.0 -447.0 7.0 5.0 3.0 1.0 0.0 3.0 8.0 8.0 9.0 4.0 1.0 2.0 10.0 5.0 1.0 6.0 1.0 3.0 3.0 9.0 9.0 10.0 10.0 7.0 1.0 9.0 6.0 
7.0 6.0 1.0 6.0 7.0 2.0 4.0 8.0 7.0 9.0 2.0 10.0 6.0 0.0 6.0 0.0 7.0 1.0 6.0 8.0 9.0 9.0 8.0 9.0 5.0 4.0 10.0 4.0 10.0 3.0 4.0 1.0 1.0 6.0 3.0 3.0 1.0 0.0 7.0 0.0 7.0 8.0 5.0 0.0 2.0 0.0 6.0 3.0 8.0 5.0 6.0 0.0 4.0 0.0 3.0 10.0 9.0 6.0 5.0 0.0 10.0 7.0 -433.0 5.0 1.0 2.0 9.0 1.0 0.0 0.0 7.0 4.0 5.0 10.0 2.0 5.0 3.0 8.0 4.0 10.0 9.0 7.0 8.0 6.0 0.0 10.0 8.0 2.0 3.0 
3.0 8.0 0.0 2.0 1.0 2.0 8.0 7.0 9.0 8.0 6.0 2.0 1.0 6.0 7.0 7.0 0.0 2.0 9.0 6.0 9.0 2.0 8.0 1.0 7.0 7.0 3.0 2.0 4.0 2.0 7.0 10.0 6.0 5.0 0.0 8.0 1.0 0.0 4.0 8.0 4.0 8.0 7.0 5.0 8.0 5.0 1.0 1.0 4.0 2.0 9.0 5.0 7.0 2.0 4.0 6.0 0.0 6.0 10.0 10.0 5.0 5.0 5.0 -433.0 2.0 7.0 0.0 8.0 9.0 4.0 1.0 3.0 6.0 2.0 3.0 9.0 6.0 3.0 7.0 8.0 10.0 7.0 2.0 8.0 6.0 5.0 5.0 2.0 3.0 
10.0 3.0 3.0 8.0 9.0 3.0 8.0 8.0 10.0 4.0 8.0 9.0 4.0 9.0 7.0 10.0 2.0 7.0 4.0 2.0 0.0 1.0 3.0 6.0 7.0 4.0 8.0 1.0 4.0 2.0 5.0 2.0 6.0 9.0 10.0 4.0 4.0 1.0 6.0 7.0 8.0 3.0 9.0 5.0 10.0 7.0 6.0 1.0 9.0 8.0 5.0 8.0 8.0 3.0 6.0 1.0 4.0 6.0 2.0 10.0 10.0 3.0 1.0 2.0 -454.0 10.0 8.0 2.0 7.0 4.0 0.0 1.0 0.0 5.0 0.0 7.0 8.0 7.0 3.0 7.0 8.0 3.0 5.0 1.0 4.0 3.0 1.0 6.0 1.0 
9.0 5.0 8.0 4.0 9.0 10.0 3.0 7.0 0.0 9.0 9.0 7.0 10.0 9.0 9.0 10.0 5.0 6.0 7.0 0.0 3.0 7.0 0.0 1.0 2.0 4.0 3.0 0.0 2.0 0.0 1.0 6.0 5.0 3.0 4.0 7.0 1.0 0.0 4.0 0.0 4.0 10.0 7.0 5.0 3.0 6.0 3.0 7.0 8.0 6.0 9.0 7.0 3.0 4.0 8.0 7.0 8.0 9.0 4.0 9.0 8.0 1.0 2.0 7.0 10.0 -464.0 0.0 5.0 4.0 3.0 6.0 3.0 6.0 6.0 3.0 10.0 10.0 4.0 7.0 1.0 0.0 7.0 10.0 9.0 5.0 7.0 7.0 1.0 6.0 
3.0 5.0 2.0 5.0 10.0 5.0 6.0 10.0 2.0 2.0 10.0 6.0 4.0 6.0 7.0 7.0 5.0 6.0 5.0 2.0 9.0 7.0 8.0 10.0 8.0 5.0 7.0 2.0 2.0 0.0 9.0 7.0 8.0 10.0 8.0 7.0 2.0 9.0 4.0 5.0 5.0 0.0 0.0 6.0 8.0 3.0 4.0 4.0 0.0 7.0 6.0 9.0 3.0 1.0 2.0 4.0 0.0 1.0 6.0 4.0 7.0 0.0 9.0 0.0 8.0 0.0 -442.0 4.0 0.0 9.0 5.0 10.0 9.0 1.0 1.0 1.0 0.0 4.0 6.0 0.0 9.0 8.0 7.0 8.0 3.0 5.0 7.0 7.0 6.0 
10.0 10.0 7.0 1.0 7.0 9.0 9.0 7.0 10.0 10.0 1.0 4.0 4.0 2.0 3.0 8.0 1.0 1.0 4.0 1.0 8.0 4.0 8.0 0.0 8.0 8.0 6.0 0.0 7.0 3.0 8.0 7.0 10.0 4.0 6.0 8.0 9.0 5.0 9.0 5.0 1.0 2.0 10.0 10.0 5.0 1.0 7.0 10.0 1.0 1.0 6.0 5.0 10.0 4.0 9.0 3.0 5.0 0.0 3.0 1.0 9.0 3.0 1.0 8.0 2.0 5.0 4.0 -470.0 3.0 7.0 8.0 5.0 4.0 9.0 7.0 0.0 2.0 6.0 8.0 4.0 2.0 8.0 10.0 5.0 9.0 4.0 0.0 1.0 10.0 
0.0 5.0 8.0 8.0 1.0 7.0 5.0 3.0 9.0 3.0 7.0 5.0 9.0 7.0 4.0 8.0 3.0 6.0 7.0 6.0 4.0 1.0 0.0 5.0 2.0 4.0 4.0 8.0 3.0 1.0 6.0 6.0 1.0 2.0 10.0 0.0 3.0 5.0 6.0 2.0 6.0 0.0 2.0 7.0 2.0 10.0 4.0 4.0 7.0 10.0 9.0 8.0 5.0 0.0 7.0 6.0 7.0 7.0 2.0 0.0 9.0 8.0 0.0 9.0 7.0 4.0 0.0 3.0 -446.0 2.0 2.0 8.0 2.0 3.0 5.0 0.0 9.0 6.0 9.0 7.0 6.0 10.0 9.0 10.0 4.0 4.0 9.0 6.0 8.0 
6.0 9.0 4.0 8.0 8.0 7.0 4.0 4.0 2.0 0.0 0.0 8.0 2.0 8.0 6.0 10.0 4.0 3.0 3.0 7.0 10.0 7.0 4.0 4.0 8.0 6.0 8.0 8.0 2.0 9.0 2.0 10.0 10.0 7.0 9.0 4.0 4.0 3.0 4.0 4.0 5.0 2.0 10.0 9.0 3.0 6.0 4.0 9.0 0.0 5.0 6.0 0.0 10.0 9.0 5.0 7.0 3.0 8.0 4.0 1.0 7.0 8.0 0.0 4.0 4.0 3.0 9.0 7.0 2.0 -480.0 8.0 0.0 7.0 3.0 4.0 9.0 1.0 10.0 10.0 7.0 2.0 2.0 7.0 2.0 10.0 8.0 4.0 1.0 9.0 
1.0 2.0 10.0 8.0 3.0 3.0 2.0 8.0 9.0 0.0 3.0 7.0 3.0 4.0 2.0 10.0 9.0 0.0 5.0 5.0 0.0 8.0 1.0 7.0 8.0 6.0 7.0 7.0 8.0 1.0 9.0 3.0 10.0 5.0 5.0 2.0 8.0 2.0 7.0 5.0 2.0 7.0 2.0 5.0 10.0 10.0 3.0 6.0 7.0 6.0 10.0 8.0 4.0 4.0 0.0 6.0 5.0 4.0 0.0 7.0 4.0 9.0 7.0 1.0 0.0 6.0 5.0 8.0 2.0 8.0 -440.0 9.0 5.0 9.0 1.0 3.0 6.0 5.0 7.0 3.0 0.0 5.0 3.0 4.0 1.0 7.0 8.0 4.0 1.0 
6.0 1.0 8.0 4.0 5.0 7.0 2.0 9.0 7.0 1.0 3.0 5.0 1.0 5.0 9.0 3.0 5.0 2.0 2.0 8.0 1.0 8.0 6.0 4.0 9.0 8.0 3.0 4.0 4.0 8.0 5.0 3.0 1.0 7.0 0.0 9.0 4.0 9.0 10.0 2.0 10.0 9.0 3.0 3.0 9.0 1.0 3.0 8.0 10.0 9.0 4.0 0.0 3.0 0.0 2.0 10.0 10.0 10.0 0.0 9.0 9.0 4.0 4.0 3.0 1.0 3.0 10.0 5.0 8.0 0.0 9.0 -473.0 6.0 10.0 9.0 3.0 7.0 8.0 6.0 4.0 4.0 0.0 3.0 10.0 1.0 8.0 9.0 8.0 10.0 
0.0 10.0 8.0 6.0 3.0 7.0 5.0 9.0 7.0 7.0 5.0 5.0 3.0 1.0 0.0 8.0 7.0 10.0 5.0 8.0 1.0 8.0 1.0 7.0 7.0 9.0 7.0 6.0 10.0 2.0 3.0 6.0 8.0 7.0 5.0 7.0 1.0 2.0 6.0 2.0 6.0 4.0 1.0 7.0 9.0 3.0 9.0 8.0 2.0 5.0 2.0 2.0 0.0 4.0 0.0 3.0 6.0 4.0 6.0 1.0 5.0 1.0 5.0 6.0 0.0 6.0 9.0 4.0 2.0 7.0 5.0 6.0 -458.0 8.0 6.0 7.0 9.0 9.0 2.0 2.0 8.0 4.0 8.0 10.0 10.0 4.0 9.0 2.0 3.0 
4.0 3.0 2.0 8.0 8.0 4.0 3.0 2.0 1.0 4.0 8.0 8.0 9.0 0.0 8.0 10.0 5.0 2.0 5.0 10.0 9.0 3.0 6.0 0.0 2.0 10.0 3.0 4.0 6.0 0.0 5.0 5.0 6.0 6.0 3.0 8.0 6.0 7.0 10.0 5.0 4.0 3.0 3.0 8.0 2.0 8.0 2.0 10.0 2.0 0.0 3.0 3.0 1.0 5.0 2.0 9.0 5.0 9.0 0.0 0.0 5.0 2.0 10.0 2.0 5.0 6.0 1.0 9.0 3.0 3.0 9.0 10.0 8.0 -439.0 1.0 4.0 9.0 3.0 9.0 3.0 8.0 2.0 0.0 10.0 2.0 10.0 4.0 7.0 7.0 
1.0 8.0 3.0 10.0 8.0 7.0 1.0 10.0 9.0 3.0 9.0 2.0 1.0 3.0 8.0 0.0 1.0 1.0 5.0 2.0 9.0 6.0 2.0 1.0 9.0 0.0 9.0 10.0 0.0 10.0 10.0 8.0 8.0 1.0 6.0 10.0 8.0 0.0 5.0 7.0 7.0 3.0 0.0 6.0 0.0 6.0 1.0 5.0 9.0 0.0 3.0 3.0 1.0 2.0 10.0 1.0 7.0 7.0 5.0 6.0 5.0 10.0 2.0 3.0 0.0 3.0 1.0 7.0 5.0 4.0 1.0 9.0 6.0 1.0 -403.0 0.0 1.0 2.0 9.0 2.0 5.0 2.0 5.0 2.0 6.0 1.0 6.0 3.0 9.0 
0.0 5.0 7.0 4.0 6.0 1.0 7.0 4.0 3.0 3.0 4.0 8.0 5.0 0.0 6.0 4.0 3.0 3.0 4.0 5.0 5.0 3.0 8.0 3.0 2.0 5.0 0.0 2.0 6.0 1.0 1.0 7.0 0.0 2.0 0.0 10.0 6.0 2.0 4.0 7.0 1.0 4.0 10.0 2.0 5.0 6.0 6.0 4.0 2.0 1.0 10.0 7.0 8.0 0.0 0.0 0.0 8.0 2.0 1.0 1.0 7.0 5.0 5.0 9.0 7.0 10.0 1.0 0.0 0.0 9.0 3.0 3.0 7.0 4.0 0.0 -356.0 4.0 7.0 0.0 0.0 5.0 6.0 8.0 7.0 0.0 1.0 1.0 6.0 7.0 
4.0 9.0 3.0 2.0 6.0 10.0 2.0 8.0 9.0 3.0 6.0 9.0 7.0 2.0 7.0 2.0 8.0 2.0 10.0 8.0 6.0 3.0 2.0 1.0 2.0 8.0 7.0 5.0 2.0 1.0 6.0 10.0 5.0 4.0 3.0 4.0 7.0 10.0 4.0 8.0 2.0 8.0 4.0 9.0 7.0 5.0 1.0 5.0 4.0 9.0 0.0 9.0 0.0 2.0 3.0 4.0 2.0 8.0 3.0 3.0 6.0 1.0 3.0 6.0 8.0 10.0 0.0 2.0 9.0 1.0 6.0 7.0 9.0 9.0 1.0 4.0 -425.0 9.0 8.0 1.0 6.0 0.0 1.0 0.0 0.0 1.0 3.0 5.0 6.0 
9.0 9.0 4.0 8.0 4.0 5.0 10.0 0.0 5.0 0.0 3.0 4.0 3.0 0.0 4.0 3.0 0.0 4.0 6.0 9.0 5.0 5.0 1.0 5.0 3.0 10.0 2.0 4.0 0.0 3.0 3.0 3.0 1.0 2.0 5.0 2.0 2.0 7.0 8.0 0.0 4.0 4.0 7.0 2.0 4.0 2.0 7.0 4.0 7.0 6.0 8.0 4.0 1.0 8.0 5.0 5.0 6.0 6.0 9.0 6.0 3.0 6.0 8.0 3.0 7.0 4.0 4.0 6.0 6.0 10.0 5.0 8.0 9.0 3.0 2.0 7.0 9.0 -424.0 4.0 5.0 4.0 6.0 7.0 7.0 3.0 2.0 2.0 9.0 9.0 
5.0 6.0 9.0 2.0 0.0 3.0 0.0 3.0 8.0 3.0 5.0 6.0 9.0 7.0 4.0 0.0 6.0 6.0 6.0 2.0 5.0 5.0 5.0 8.0 9.0 1.0 4.0 8.0 4.0 10.0 8.0 4.0 5.0 4.0 6.0 6.0 1.0 1.0 10.0 5.0 1.0 3.0 5.0 8.0 10.0 10.0 5.0 1.0 1.0 9.0 0.0 1.0 9.0 9.0 4.0 1.0 1.0 2.0 2.0 6.0 1.0 1.0 4.0 7.0 3.0 7.0 6.0 8.0 9.0 10.0 7.0 6.0 2.0 9.0 9.0 0.0 8.0 4.0 -429.0 2.0 3.0 0.0 1.0 0.0 9.0 7.0 7.0 8.0 4.0 
3.0 0.0 4.0 0.0 7.0 0.0 7.0 2.0 2.0 4.0 7.0 9.0 8.0 5.0 4.0 6.0 3.0 10.0 6.0 10.0 9.0 0.0 8.0 2.0 6.0 3.0 3.0 5.0 7.0 7.0 8.0 9.0 3.0 4.0 6.0 8.0 3.0 8.0 1.0 8.0 4.0 3.0 2.0 1.0 3.0 0.0 2.0 6.0 7.0 0.0 0.0 10.0 1.0 7.0 0.0 6.0 4.0 6.0 1.0 1.0 8.0 3.0 10.0 8.0 7.0 1.0 0.0 4.0 7.0 7.0 3.0 4.0 2.0 3.0 2.0 0.0 1.0 5.0 2.0 -403.0 7.0 4.0 10.0 7.0 9.0 10.0 10.0 0.0 0.0 
5.0 0.0 5.0 10.0 9.0 2.0 4.0 10.0 2.0 8.0 0.0 2.0 10.0 7.0 0.0 4.0 8.0 1.0 5.0 3.0 10.0 4.0 9.0 8.0 2.0 6.0 4.0 0.0 1.0 2.0 0.0 3.0 2.0 5.0 7.0 8.0 0.0 3.0 6.0 2.0 9.0 2.0 6.0 6.0 4.0 1.0 6.0 6.0 2.0 4.0 0.0 1.0 5.0 6.0 4.0 1.0 2.0 4.0 3.0 5.0 10.0 3.0 9.0 10.0 8.0 0.0 9.0 2.0 6.0 2.0 0.0 4.0 8.0 8.0 5.0 5.0 6.0 4.0 3.0 7.0 -392.0 4.0 4.0 1.0 6.0 6.0 3.0 2.0 3.0 
5.0 0.0 8.0 4.0 9.0 7.0 1.0 1.0 3.0 6.0 10.0 9.0 2.0 0.0 6.0 3.0 1.0 2.0 7.0 2.0 0.0 5.0 8.0 9.0 8.0 10.0 1.0 5.0 0.0 8.0 9.0 5.0 10.0 0.0 7.0 0.0 8.0 8.0 9.0 3.0 9.0 5.0 2.0 8.0 8.0 2.0 0.0 1.0 6.0 8.0 7.0 7.0 8.0 0.0 9.0 3.0 3.0 10.0 10.0 9.0 5.0 9.0 7.0 7.0 3.0 7.0 8.0 8.0 10.0 2.0 5.0 0.0 4.0 2.0 2.0 6.0 0.0 6.0 0.0 4.0 4.0 -435.0 10.0 0.0 3.0 4.0 1.0 2.0 2.0 
6.0 0.0 6.0 9.0 2.0 8.0 3.0 9.0 8.0 0.0 3.0 0.0 4.0 2.0 1.0 10.0 3.0 4.0 6.0 10.0 2.0 4.0 2.0 8.0 6.0 10.0 2.0 2.0 5.0 3.0 6.0 0.0 2.0 1.0 7.0 10.0 5.0 1.0 0.0 6.0 10.0 9.0 7.0 8.0 4.0 10.0 4.0 1.0 9.0 7.0 1.0 2.0 6.0 1.0 9.0 9.0 10.0 0.0 5.0 6.0 7.0 9.0 8.0 2.0 5.0 10.0 7.0 10.0 9.0 7.0 3.0 3.0 8.0 0.0 5.0 8.0 1.0 7.0 1.0 10.0 4.0 10.0 -451.0 3.0 5.0 2.0 4.0 2.0 7.0 
0.0 0.0 3.0 7.0 9.0 0.0 0.0 10.0 7.0 9.0 9.0 1.0 4.0 8.0 0.0 2.0 8.0 6.0 0.0 8.0 9.0 1.0 1.0 8.0 0.0 5.0 0.0 4.0 8.0 4.0 10.0 8.0 0.0 3.0 7.0 9.0 7.0 1.0 6.0 4.0 4.0 5.0 7.0 5.0 9.0 1.0 9.0 5.0 0.0 2.0 3.0 7.0 9.0 9.0 3.0 8.0 1.0 8.0 5.0 10.0 5.0 10.0 6.0 8.0 1.0 9.0 8.0 5.0 10.0 2.0 4.0 10.0 10.0 10.0 2.0 7.0 0.0 7.0 0.0 7.0 1.0 0.0 3.0 -455.0 6.0 10.0 5.0 3.0 10.0 
10.0 0.0 4.0 4.0 4.0 1.0 10.0 2.0 10.0 1.0 4.0 3.0 7.0 10.0 4.0 0.0 8.0 5.0 4.0 1.0 4.0 3.0 8.0 4.0 6.0 3.0 7.0 3.0 4.0 10.0 4.0 3.0 5.0 4.0 9.0 9.0 8.0 4.0 10.0 8.0 0.0 7.0 9.0 4.0 7.0 6.0 10.0 3.0 8.0 9.0 5.0 7.0 10.0 0.0 5.0 7.0 10.0 0.0 10.0 9.0 5.0 10.0 0.0 6.0 4.0 5.0 3.0 9.0 4.0 10.0 1.0 1.0 10.0 2.0 6.0 0.0 0.0 3.0 9.0 9.0 6.0 3.0 5.0 6.0 -473.0 10.0 4.0 6.0 2.0 
9.0 0.0 4.0 6.0 4.0 3.0 9.0 7.0 7.0 3.0 5.0 9.0 2.0 8.0 3.0 0.0 8.0 9.0 9.0 2.0 8.0 6.0 0.0 2.0 5.0 9.0 4.0 2.0 10.0 3.0 10.0 7.0 2.0 5.0 9.0 6.0 7.0 3.0 9.0 8.0 10.0 6.0 10.0 2.0 3.0 6.0 7.0 2.0 0.0 1.0 9.0 4.0 8.0 9.0 10.0 6.0 1.0 3.0 10.0 7.0 10.0 7.0 10.0 5.0 3.0 7.0 5.0 4.0 4.0 8.0 7.0 8.0 4.0 10.0 1.0 1.0 1.0 2.0 7.0 10.0 6.0 4.0 2.0 10.0 10.0 -506.0 8.0 9.0 7.0 
5.0 0.0 7.0 9.0 10.0 3.0 8.0 4.0 6.0 6.0 10.0 6.0 7.0 0.0 0.0 7.0 0.0 3.0 7.0 8.0 10.0 3.0 5.0 8.0 4.0 1.0 7.0 4.0 3.0 8.0 10.0 5.0 6.0 2.0 4.0 4.0 8.0 4.0 6.0 9.0 7.0 9.0 2.0 0.0 4.0 7.0 2.0 5.0 8.0 10.0 9.0 7.0 9.0 1.0 3.0 0.0 3.0 9.0 10.0 5.0 6.0 1.0 8.0 5.0 1.0 7.0 7.0 0.0 9.0 4.0 8.0 9.0 9.0 4.0 6.0 1.0 3.0 2.0 7.0 10.0 3.0 1.0 4.0 5.0 4.0 8.0 -461.0 1.0 1.0 
1.0 0.0 6.0 5.0 6.0 0.0 4.0 5.0 10.0 9.0 3.0 4.0 5.0 6.0 1.0 4.0 1.0 10.0 0.0 5.0 9.0 10.0 2.0 9.0 8.0 2.0 7.0 1.0 5.0 4.0 10.0 1.0 0.0 5.0 10.0 6.0 2.0 7.0 10.0 10.0 6.0 4.0 4.0 0.0 10.0 2.0 1.0 4.0 8.0 3.0 5.0 3.0 8.0 1.0 10.0 8.0 8.0 2.0 7.0 7.0 8.0 9.0 2.0 2.0 6.0 1.0 7.0 1.0 6.0 1.0 4.0 8.0 2.0 7.0 3.0 6.0 5.0 9.0 8.0 0.0 2.0 2.0 2.0 3.0 6.0 9.0 1.0 -424.0 0.0 
9.0 0.0 3.0 2.0 6.0 2.0 0.0 4.0 1.0 2.0 9.0 10.0 4.0 6.0 3.0 3.0 5.0 4.0 5.0 6.0 0.0 2.0 2.0 1.0 4.0 1.0 5.0 5.0 10.0 6.0 10.0 0.0 9.0 8.0 5.0 9.0 9.0 3.0 7.0 3.0 6.0 0.0 2.0 2.0 8.0 7.0 10.0 5.0 10.0 4.0 8.0 9.0 7.0 5.0 4.0 8.0 7.0 6.0 2.0 7.0 4.0 6.0 3.0 3.0 1.0 6.0 6.0 10.0 8.0 9.0 1.0 10.0 3.0 7.0 9.0 7.0 6.0 9.0 4.0 0.0 3.0 2.0 7.0 10.0 2.0 7.0 1.0 0.0 -444.0 

